9
0 392 157 56 762 41 123 131 103
392 0 418 169 81 110 116 294 38
157 418 0 95 38 178 66 366 128
56 169 95 0 95 118 90 85 292
762 81 38 95 0 27 169 61 106
41 110 178 118 27 0 561 525 799
123 116 66 90 169 561 0 269 410
131 294 366 85 61 525 269 0 401
103 38 128 292 106 799 410 401 0